ilp/gc2.lp
Minimize
	y1 + y2 + y3 + y4
Subject To
	v1: x11 + x12 + x13 + x14 = 1
	v2: x21 + x22 + x23 + x24 = 1
	v3: x31 + x32 + x33 + x34 = 1
	v4: x41 + x42 + x43 + x44 = 1
	v5: x51 + x52 + x53 + x54 = 1
	v6: x61 + x62 + x63 + x64 = 1
	v7: x71 + x72 + x73 + x74 = 1
	v8: x81 + x82 + x83 + x84 = 1
	v9: x91 + x92 + x93 + x94 = 1
	v10: x101 + x102 + x103 + x104 = 1
	v11: x111 + x112 + x113 + x114 = 1
	v12: x121 + x122 + x123 + x124 = 1
	v13: x131 + x132 + x133 + x134 = 1
	v14: x141 + x142 + x143 + x144 = 1
	v15: x151 + x152 + x153 + x154 = 1
	v16: x161 + x162 + x163 + x164 = 1
	v17: x171 + x172 + x173 + x174 = 1
	v18: x181 + x182 + x183 + x184 = 1
	v19: x191 + x192 + x193 + x194 = 1
	v20: x201 + x202 + x203 + x204 = 1
	v21: x211 + x212 + x213 + x214 = 1
	v22: x221 + x222 + x223 + x224 = 1
	v23: x231 + x232 + x233 + x234 = 1
	v24: x241 + x242 + x243 + x244 = 1
	v25: x251 + x252 + x253 + x254 = 1
	v26: x261 + x262 + x263 + x264 = 1
	v27: x271 + x272 + x273 + x274 = 1
	v28: x281 + x282 + x283 + x284 = 1
	v29: x291 + x292 + x293 + x294 = 1
	v30: x301 + x302 + x303 + x304 = 1

	d1: x11 - y1 <= 0
	d2: x12 - y2 <= 0
	d3: x13 - y3 <= 0
	d4: x14 - y4 <= 0

	d5: x21 - y1 <= 0
	d6: x22 - y2 <= 0
	d7: x23 - y3 <= 0
	d8: x24 - y4 <= 0

	d9: x31 - y1 <= 0
	d10: x32 - y2 <= 0
	d11: x33 - y3 <= 0
	d12: x34 - y4 <= 0

	d13: x41 - y1 <= 0
	d14: x42 - y2 <= 0
	d15: x43 - y3 <= 0
	d16: x44 - y4 <= 0

	d17: x51 - y1 <= 0
	d18: x52 - y2 <= 0
	d19: x53 - y3 <= 0
	d20: x54 - y4 <= 0

	d21: x61 - y1 <= 0
	d22: x62 - y2 <= 0
	d23: x63 - y3 <= 0
	d24: x64 - y4 <= 0

	d25: x71 - y1 <= 0
	d26: x72 - y2 <= 0
	d27: x73 - y3 <= 0
	d28: x74 - y4 <= 0

	d29: x81 - y1 <= 0
	d30: x82 - y2 <= 0
	d31: x83 - y3 <= 0
	d32: x84 - y4 <= 0

	d33: x91 - y1 <= 0
	d34: x92 - y2 <= 0
	d35: x93 - y3 <= 0
	d36: x94 - y4 <= 0

	d37: x101 - y1 <= 0
	d38: x102 - y2 <= 0
	d39: x103 - y3 <= 0
	d40: x104 - y4 <= 0

	d41: x111 - y1 <= 0
	d42: x112 - y2 <= 0
	d43: x113 - y3 <= 0
	d44: x114 - y4 <= 0

	d45: x121 - y1 <= 0
	d46: x122 - y2 <= 0
	d47: x123 - y3 <= 0
	d48: x124 - y4 <= 0

	d49: x131 - y1 <= 0
	d50: x132 - y2 <= 0
	d51: x133 - y3 <= 0
	d52: x134 - y4 <= 0

	d53: x141 - y1 <= 0
	d54: x142 - y2 <= 0
	d55: x143 - y3 <= 0
	d56: x144 - y4 <= 0

	d57: x151 - y1 <= 0
	d58: x152 - y2 <= 0
	d59: x153 - y3 <= 0
	d60: x154 - y4 <= 0

	d61: x161 - y1 <= 0
	d62: x162 - y2 <= 0
	d63: x163 - y3 <= 0
	d64: x164 - y4 <= 0

	d65: x171 - y1 <= 0
	d66: x172 - y2 <= 0
	d67: x173 - y3 <= 0
	d68: x174 - y4 <= 0

	d69: x181 - y1 <= 0
	d70: x182 - y2 <= 0
	d71: x183 - y3 <= 0
	d72: x184 - y4 <= 0

	d73: x191 - y1 <= 0
	d74: x192 - y2 <= 0
	d75: x193 - y3 <= 0
	d76: x194 - y4 <= 0

	d77: x201 - y1 <= 0
	d78: x202 - y2 <= 0
	d79: x203 - y3 <= 0
	d80: x204 - y4 <= 0

	d81: x211 - y1 <= 0
	d82: x212 - y2 <= 0
	d83: x213 - y3 <= 0
	d84: x214 - y4 <= 0

	d85: x221 - y1 <= 0
	d86: x222 - y2 <= 0
	d87: x223 - y3 <= 0
	d88: x224 - y4 <= 0

	d89: x231 - y1 <= 0
	d90: x232 - y2 <= 0
	d91: x233 - y3 <= 0
	d92: x234 - y4 <= 0

	d93: x241 - y1 <= 0
	d94: x242 - y2 <= 0
	d95: x243 - y3 <= 0
	d96: x244 - y4 <= 0

	d97: x251 - y1 <= 0
	d98: x252 - y2 <= 0
	d99: x253 - y3 <= 0
	d100: x254 - y4 <= 0

	d101: x261 - y1 <= 0
	d102: x262 - y2 <= 0
	d103: x263 - y3 <= 0
	d104: x264 - y4 <= 0

	d105: x271 - y1 <= 0
	d106: x272 - y2 <= 0
	d107: x273 - y3 <= 0
	d108: x274 - y4 <= 0

	d109: x281 - y1 <= 0
	d110: x282 - y2 <= 0
	d111: x283 - y3 <= 0
	d112: x284 - y4 <= 0

	d113: x291 - y1 <= 0
	d114: x292 - y2 <= 0
	d115: x293 - y3 <= 0
	d116: x294 - y4 <= 0

	d117: x301 - y1 <= 0
	d118: x302 - y2 <= 0
	d119: x303 - y3 <= 0
	d120: x304 - y4 <= 0

	e1: x11 + x21 <= 1
	e2: x12 + x22 <= 1
	e3: x13 + x23 <= 1
	e4: x14 + x24 <= 1

	e5: x11 + x41 <= 1
	e6: x12 + x42 <= 1
	e7: x13 + x43 <= 1
	e8: x14 + x44 <= 1

	e9: x11 + x111 <= 1
	e10: x12 + x112 <= 1
	e11: x13 + x113 <= 1
	e12: x14 + x114 <= 1

	e13: x11 + x131 <= 1
	e14: x12 + x132 <= 1
	e15: x13 + x133 <= 1
	e16: x14 + x134 <= 1

	e17: x21 + x31 <= 1
	e18: x22 + x32 <= 1
	e19: x23 + x33 <= 1
	e20: x24 + x34 <= 1

	e21: x21 + x101 <= 1
	e22: x22 + x102 <= 1
	e23: x23 + x103 <= 1
	e24: x24 + x104 <= 1

	e25: x21 + x121 <= 1
	e26: x22 + x122 <= 1
	e27: x23 + x123 <= 1
	e28: x24 + x124 <= 1

	e29: x31 + x61 <= 1
	e30: x32 + x62 <= 1
	e31: x33 + x63 <= 1
	e32: x34 + x64 <= 1

	e33: x31 + x81 <= 1
	e34: x32 + x82 <= 1
	e35: x33 + x83 <= 1
	e36: x34 + x84 <= 1

	e37: x31 + x111 <= 1
	e38: x32 + x112 <= 1
	e39: x33 + x113 <= 1
	e40: x34 + x114 <= 1

	e41: x31 + x151 <= 1
	e42: x32 + x152 <= 1
	e43: x33 + x153 <= 1
	e44: x34 + x154 <= 1

	e45: x31 + x171 <= 1
	e46: x32 + x172 <= 1
	e47: x33 + x173 <= 1
	e48: x34 + x174 <= 1

	e49: x41 + x51 <= 1
	e50: x42 + x52 <= 1
	e51: x43 + x53 <= 1
	e52: x44 + x54 <= 1

	e53: x41 + x81 <= 1
	e54: x42 + x82 <= 1
	e55: x43 + x83 <= 1
	e56: x44 + x84 <= 1

	e57: x41 + x101 <= 1
	e58: x42 + x102 <= 1
	e59: x43 + x103 <= 1
	e60: x44 + x104 <= 1

	e61: x41 + x141 <= 1
	e62: x42 + x142 <= 1
	e63: x43 + x143 <= 1
	e64: x44 + x144 <= 1

	e65: x41 + x171 <= 1
	e66: x42 + x172 <= 1
	e67: x43 + x173 <= 1
	e68: x44 + x174 <= 1

	e69: x51 + x71 <= 1
	e70: x52 + x72 <= 1
	e71: x53 + x73 <= 1
	e72: x54 + x74 <= 1

	e73: x51 + x91 <= 1
	e74: x52 + x92 <= 1
	e75: x53 + x93 <= 1
	e76: x54 + x94 <= 1

	e77: x51 + x131 <= 1
	e78: x52 + x132 <= 1
	e79: x53 + x133 <= 1
	e80: x54 + x134 <= 1

	e81: x51 + x161 <= 1
	e82: x52 + x162 <= 1
	e83: x53 + x163 <= 1
	e84: x54 + x164 <= 1

	e85: x51 + x181 <= 1
	e86: x52 + x182 <= 1
	e87: x53 + x183 <= 1
	e88: x54 + x184 <= 1

	e89: x61 + x71 <= 1
	e90: x62 + x72 <= 1
	e91: x63 + x73 <= 1
	e92: x64 + x74 <= 1

	e93: x61 + x91 <= 1
	e94: x62 + x92 <= 1
	e95: x63 + x93 <= 1
	e96: x64 + x94 <= 1

	e97: x61 + x121 <= 1
	e98: x62 + x122 <= 1
	e99: x63 + x123 <= 1
	e100: x64 + x124 <= 1

	e101: x61 + x161 <= 1
	e102: x62 + x162 <= 1
	e103: x63 + x163 <= 1
	e104: x64 + x164 <= 1

	e105: x61 + x181 <= 1
	e106: x62 + x182 <= 1
	e107: x63 + x183 <= 1
	e108: x64 + x184 <= 1

	e109: x71 + x81 <= 1
	e110: x72 + x82 <= 1
	e111: x73 + x83 <= 1
	e112: x74 + x84 <= 1

	e113: x71 + x91 <= 1
	e114: x72 + x92 <= 1
	e115: x73 + x93 <= 1
	e116: x74 + x94 <= 1

	e117: x71 + x141 <= 1
	e118: x72 + x142 <= 1
	e119: x73 + x143 <= 1
	e120: x74 + x144 <= 1

	e121: x71 + x151 <= 1
	e122: x72 + x152 <= 1
	e123: x73 + x153 <= 1
	e124: x74 + x154 <= 1

	e125: x71 + x171 <= 1
	e126: x72 + x172 <= 1
	e127: x73 + x173 <= 1
	e128: x74 + x174 <= 1

	e129: x71 + x181 <= 1
	e130: x72 + x182 <= 1
	e131: x73 + x183 <= 1
	e132: x74 + x184 <= 1

	e133: x81 + x91 <= 1
	e134: x82 + x92 <= 1
	e135: x83 + x93 <= 1
	e136: x84 + x94 <= 1

	e137: x81 + x121 <= 1
	e138: x82 + x122 <= 1
	e139: x83 + x123 <= 1
	e140: x84 + x124 <= 1

	e141: x81 + x131 <= 1
	e142: x82 + x132 <= 1
	e143: x83 + x133 <= 1
	e144: x84 + x134 <= 1

	e145: x81 + x161 <= 1
	e146: x82 + x162 <= 1
	e147: x83 + x163 <= 1
	e148: x84 + x164 <= 1

	e149: x81 + x181 <= 1
	e150: x82 + x182 <= 1
	e151: x83 + x183 <= 1
	e152: x84 + x184 <= 1

	e153: x91 + x141 <= 1
	e154: x92 + x142 <= 1
	e155: x93 + x143 <= 1
	e156: x94 + x144 <= 1

	e157: x91 + x151 <= 1
	e158: x92 + x152 <= 1
	e159: x93 + x153 <= 1
	e160: x94 + x154 <= 1

	e161: x91 + x161 <= 1
	e162: x92 + x162 <= 1
	e163: x93 + x163 <= 1
	e164: x94 + x164 <= 1

	e165: x91 + x171 <= 1
	e166: x92 + x172 <= 1
	e167: x93 + x173 <= 1
	e168: x94 + x174 <= 1

	e169: x101 + x201 <= 1
	e170: x102 + x202 <= 1
	e171: x103 + x203 <= 1
	e172: x104 + x204 <= 1

	e173: x101 + x221 <= 1
	e174: x102 + x222 <= 1
	e175: x103 + x223 <= 1
	e176: x104 + x224 <= 1

	e177: x101 + x291 <= 1
	e178: x102 + x292 <= 1
	e179: x103 + x293 <= 1
	e180: x104 + x294 <= 1

	e181: x111 + x191 <= 1
	e182: x112 + x192 <= 1
	e183: x113 + x193 <= 1
	e184: x114 + x194 <= 1

	e185: x111 + x211 <= 1
	e186: x112 + x212 <= 1
	e187: x113 + x213 <= 1
	e188: x114 + x214 <= 1

	e189: x111 + x291 <= 1
	e190: x112 + x292 <= 1
	e191: x113 + x293 <= 1
	e192: x114 + x294 <= 1

	e193: x121 + x201 <= 1
	e194: x122 + x202 <= 1
	e195: x123 + x203 <= 1
	e196: x124 + x204 <= 1

	e197: x121 + x241 <= 1
	e198: x122 + x242 <= 1
	e199: x123 + x243 <= 1
	e200: x124 + x244 <= 1

	e201: x121 + x261 <= 1
	e202: x122 + x262 <= 1
	e203: x123 + x263 <= 1
	e204: x124 + x264 <= 1

	e205: x121 + x291 <= 1
	e206: x122 + x292 <= 1
	e207: x123 + x293 <= 1
	e208: x124 + x294 <= 1

	e209: x131 + x191 <= 1
	e210: x132 + x192 <= 1
	e211: x133 + x193 <= 1
	e212: x134 + x194 <= 1

	e213: x131 + x231 <= 1
	e214: x132 + x232 <= 1
	e215: x133 + x233 <= 1
	e216: x134 + x234 <= 1

	e217: x131 + x261 <= 1
	e218: x132 + x262 <= 1
	e219: x133 + x263 <= 1
	e220: x134 + x264 <= 1

	e221: x131 + x291 <= 1
	e222: x132 + x292 <= 1
	e223: x133 + x293 <= 1
	e224: x134 + x294 <= 1

	e225: x141 + x221 <= 1
	e226: x142 + x222 <= 1
	e227: x143 + x223 <= 1
	e228: x144 + x224 <= 1

	e229: x141 + x251 <= 1
	e230: x142 + x252 <= 1
	e231: x143 + x253 <= 1
	e232: x144 + x254 <= 1

	e233: x141 + x271 <= 1
	e234: x142 + x272 <= 1
	e235: x143 + x273 <= 1
	e236: x144 + x274 <= 1

	e237: x141 + x291 <= 1
	e238: x142 + x292 <= 1
	e239: x143 + x293 <= 1
	e240: x144 + x294 <= 1

	e241: x151 + x211 <= 1
	e242: x152 + x212 <= 1
	e243: x153 + x213 <= 1
	e244: x154 + x214 <= 1

	e245: x151 + x251 <= 1
	e246: x152 + x252 <= 1
	e247: x153 + x253 <= 1
	e248: x154 + x254 <= 1

	e249: x151 + x271 <= 1
	e250: x152 + x272 <= 1
	e251: x153 + x273 <= 1
	e252: x154 + x274 <= 1

	e253: x151 + x291 <= 1
	e254: x152 + x292 <= 1
	e255: x153 + x293 <= 1
	e256: x154 + x294 <= 1

	e257: x161 + x231 <= 1
	e258: x162 + x232 <= 1
	e259: x163 + x233 <= 1
	e260: x164 + x234 <= 1

	e261: x161 + x241 <= 1
	e262: x162 + x242 <= 1
	e263: x163 + x243 <= 1
	e264: x164 + x244 <= 1

	e265: x161 + x261 <= 1
	e266: x162 + x262 <= 1
	e267: x163 + x263 <= 1
	e268: x164 + x264 <= 1

	e269: x161 + x271 <= 1
	e270: x162 + x272 <= 1
	e271: x163 + x273 <= 1
	e272: x164 + x274 <= 1

	e273: x161 + x291 <= 1
	e274: x162 + x292 <= 1
	e275: x163 + x293 <= 1
	e276: x164 + x294 <= 1

	e277: x171 + x211 <= 1
	e278: x172 + x212 <= 1
	e279: x173 + x213 <= 1
	e280: x174 + x214 <= 1

	e281: x171 + x221 <= 1
	e282: x172 + x222 <= 1
	e283: x173 + x223 <= 1
	e284: x174 + x224 <= 1

	e285: x171 + x251 <= 1
	e286: x172 + x252 <= 1
	e287: x173 + x253 <= 1
	e288: x174 + x254 <= 1

	e289: x171 + x271 <= 1
	e290: x172 + x272 <= 1
	e291: x173 + x273 <= 1
	e292: x174 + x274 <= 1

	e293: x171 + x291 <= 1
	e294: x172 + x292 <= 1
	e295: x173 + x293 <= 1
	e296: x174 + x294 <= 1

	e297: x181 + x231 <= 1
	e298: x182 + x232 <= 1
	e299: x183 + x233 <= 1
	e300: x184 + x234 <= 1

	e301: x181 + x241 <= 1
	e302: x182 + x242 <= 1
	e303: x183 + x243 <= 1
	e304: x184 + x244 <= 1

	e305: x181 + x251 <= 1
	e306: x182 + x252 <= 1
	e307: x183 + x253 <= 1
	e308: x184 + x254 <= 1

	e309: x181 + x261 <= 1
	e310: x182 + x262 <= 1
	e311: x183 + x263 <= 1
	e312: x184 + x264 <= 1

	e313: x181 + x291 <= 1
	e314: x182 + x292 <= 1
	e315: x183 + x293 <= 1
	e316: x184 + x294 <= 1

	e317: x191 + x281 <= 1
	e318: x192 + x282 <= 1
	e319: x193 + x283 <= 1
	e320: x194 + x284 <= 1

	e321: x191 + x301 <= 1
	e322: x192 + x302 <= 1
	e323: x193 + x303 <= 1
	e324: x194 + x304 <= 1

	e325: x201 + x281 <= 1
	e326: x202 + x282 <= 1
	e327: x203 + x283 <= 1
	e328: x204 + x284 <= 1

	e329: x201 + x301 <= 1
	e330: x202 + x302 <= 1
	e331: x203 + x303 <= 1
	e332: x204 + x304 <= 1

	e333: x211 + x281 <= 1
	e334: x212 + x282 <= 1
	e335: x213 + x283 <= 1
	e336: x214 + x284 <= 1

	e337: x211 + x301 <= 1
	e338: x212 + x302 <= 1
	e339: x213 + x303 <= 1
	e340: x214 + x304 <= 1

	e341: x221 + x281 <= 1
	e342: x222 + x282 <= 1
	e343: x223 + x283 <= 1
	e344: x224 + x284 <= 1

	e345: x221 + x301 <= 1
	e346: x222 + x302 <= 1
	e347: x223 + x303 <= 1
	e348: x224 + x304 <= 1

	e349: x231 + x281 <= 1
	e350: x232 + x282 <= 1
	e351: x233 + x283 <= 1
	e352: x234 + x284 <= 1

	e353: x231 + x301 <= 1
	e354: x232 + x302 <= 1
	e355: x233 + x303 <= 1
	e356: x234 + x304 <= 1

	e357: x241 + x281 <= 1
	e358: x242 + x282 <= 1
	e359: x243 + x283 <= 1
	e360: x244 + x284 <= 1

	e361: x241 + x301 <= 1
	e362: x242 + x302 <= 1
	e363: x243 + x303 <= 1
	e364: x244 + x304 <= 1

	e365: x251 + x281 <= 1
	e366: x252 + x282 <= 1
	e367: x253 + x283 <= 1
	e368: x254 + x284 <= 1

	e369: x251 + x301 <= 1
	e370: x252 + x302 <= 1
	e371: x253 + x303 <= 1
	e372: x254 + x304 <= 1

	e373: x261 + x281 <= 1
	e374: x262 + x282 <= 1
	e375: x263 + x283 <= 1
	e376: x264 + x284 <= 1

	e377: x261 + x301 <= 1
	e378: x262 + x302 <= 1
	e379: x263 + x303 <= 1
	e380: x264 + x304 <= 1

	e381: x271 + x281 <= 1
	e382: x272 + x282 <= 1
	e383: x273 + x283 <= 1
	e384: x274 + x284 <= 1

	e385: x271 + x301 <= 1
	e386: x272 + x302 <= 1
	e387: x273 + x303 <= 1
	e388: x274 + x304 <= 1

	e389: x281 + x291 <= 1
	e390: x282 + x292 <= 1
	e391: x283 + x293 <= 1
	e392: x284 + x294 <= 1

	e393: x281 + x301 <= 1
	e394: x282 + x302 <= 1
	e395: x283 + x303 <= 1
	e396: x284 + x304 <= 1

	e397: x291 + x301 <= 1
	e398: x292 + x302 <= 1
	e399: x293 + x303 <= 1
	e400: x294 + x304 <= 1

Bounds
	0 <= x11 <= 1
	0 <= x12 <= 1
	0 <= x13 <= 1
	0 <= x14 <= 1
	0 <= x21 <= 1
	0 <= x22 <= 1
	0 <= x23 <= 1
	0 <= x24 <= 1
	0 <= x31 <= 1
	0 <= x32 <= 1
	0 <= x33 <= 1
	0 <= x34 <= 1
	0 <= x41 <= 1
	0 <= x42 <= 1
	0 <= x43 <= 1
	0 <= x44 <= 1
	0 <= x51 <= 1
	0 <= x52 <= 1
	0 <= x53 <= 1
	0 <= x54 <= 1
	0 <= x61 <= 1
	0 <= x62 <= 1
	0 <= x63 <= 1
	0 <= x64 <= 1
	0 <= x71 <= 1
	0 <= x72 <= 1
	0 <= x73 <= 1
	0 <= x74 <= 1
	0 <= x81 <= 1
	0 <= x82 <= 1
	0 <= x83 <= 1
	0 <= x84 <= 1
	0 <= x91 <= 1
	0 <= x92 <= 1
	0 <= x93 <= 1
	0 <= x94 <= 1
	0 <= x101 <= 1
	0 <= x102 <= 1
	0 <= x103 <= 1
	0 <= x104 <= 1
	0 <= x111 <= 1
	0 <= x112 <= 1
	0 <= x113 <= 1
	0 <= x114 <= 1
	0 <= x121 <= 1
	0 <= x122 <= 1
	0 <= x123 <= 1
	0 <= x124 <= 1
	0 <= x131 <= 1
	0 <= x132 <= 1
	0 <= x133 <= 1
	0 <= x134 <= 1
	0 <= x141 <= 1
	0 <= x142 <= 1
	0 <= x143 <= 1
	0 <= x144 <= 1
	0 <= x151 <= 1
	0 <= x152 <= 1
	0 <= x153 <= 1
	0 <= x154 <= 1
	0 <= x161 <= 1
	0 <= x162 <= 1
	0 <= x163 <= 1
	0 <= x164 <= 1
	0 <= x171 <= 1
	0 <= x172 <= 1
	0 <= x173 <= 1
	0 <= x174 <= 1
	0 <= x181 <= 1
	0 <= x182 <= 1
	0 <= x183 <= 1
	0 <= x184 <= 1
	0 <= x191 <= 1
	0 <= x192 <= 1
	0 <= x193 <= 1
	0 <= x194 <= 1
	0 <= x201 <= 1
	0 <= x202 <= 1
	0 <= x203 <= 1
	0 <= x204 <= 1
	0 <= x211 <= 1
	0 <= x212 <= 1
	0 <= x213 <= 1
	0 <= x214 <= 1
	0 <= x221 <= 1
	0 <= x222 <= 1
	0 <= x223 <= 1
	0 <= x224 <= 1
	0 <= x231 <= 1
	0 <= x232 <= 1
	0 <= x233 <= 1
	0 <= x234 <= 1
	0 <= x241 <= 1
	0 <= x242 <= 1
	0 <= x243 <= 1
	0 <= x244 <= 1
	0 <= x251 <= 1
	0 <= x252 <= 1
	0 <= x253 <= 1
	0 <= x254 <= 1
	0 <= x261 <= 1
	0 <= x262 <= 1
	0 <= x263 <= 1
	0 <= x264 <= 1
	0 <= x271 <= 1
	0 <= x272 <= 1
	0 <= x273 <= 1
	0 <= x274 <= 1
	0 <= x281 <= 1
	0 <= x282 <= 1
	0 <= x283 <= 1
	0 <= x284 <= 1
	0 <= x291 <= 1
	0 <= x292 <= 1
	0 <= x293 <= 1
	0 <= x294 <= 1
	0 <= x301 <= 1
	0 <= x302 <= 1
	0 <= x303 <= 1
	0 <= x304 <= 1

	0 <= y1 <= 1
	0 <= y2 <= 1
	0 <= y3 <= 1
	0 <= y4 <= 1
Integers
	x11 x12 x13 x14 x21 x22 x23 x24 x31 x32 x33 x34 x41 x42 x43 x44 x51 x52 x53 x54 x61 x62 x63 x64 x71 x72 x73 x74 x81 x82 x83 x84 x91 x92 x93 x94 x101 x102 x103 x104 x111 x112 x113 x114 x121 x122 x123 x124 x131 x132 x133 x134 x141 x142 x143 x144 x151 x152 x153 x154 x161 x162 x163 x164 x171 x172 x173 x174 x181 x182 x183 x184 x191 x192 x193 x194 x201 x202 x203 x204 x211 x212 x213 x214 x221 x222 x223 x224 x231 x232 x233 x234 x241 x242 x243 x244 x251 x252 x253 x254 x261 x262 x263 x264 x271 x272 x273 x274 x281 x282 x283 x284 x291 x292 x293 x294 x301 x302 x303 x304 y1 y2 y3 y4 
End
