ilp/gc2.sol
# Objective value = 4
y1 1
y2 1
y3 1
y4 1
x11 0
x12 0
x13 0
x14 1
x21 0
x22 1
x23 0
x24 0
x31 0
x32 0
x33 1
x34 0
x41 1
x42 0
x43 0
x44 0
x51 0
x52 1
x53 0
x54 0
x61 0
x62 0
x63 0
x64 1
x71 1
x72 0
x73 0
x74 0
x81 0
x82 0
x83 0
x84 1
x91 0
x92 0
x93 1
x94 0
x101 0
x102 0
x103 0
x104 1
x111 1
x112 0
x113 0
x114 0
x121 0
x122 0
x123 1
x124 0
x131 1
x132 0
x133 0
x134 0
x141 0
x142 0
x143 0
x144 1
x151 0
x152 0
x153 0
x154 1
x161 1
x162 0
x163 0
x164 0
x171 0
x172 0
x173 0
x174 1
x181 0
x182 0
x183 1
x184 0
x191 0
x192 1
x193 0
x194 0
x201 0
x202 1
x203 0
x204 0
x211 0
x212 0
x213 1
x214 0
x221 0
x222 0
x223 1
x224 0
x231 0
x232 1
x233 0
x234 0
x241 0
x242 1
x243 0
x244 0
x251 0
x252 1
x253 0
x254 0
x261 0
x262 1
x263 0
x264 0
x271 0
x272 0
x273 1
x274 0
x281 1
x282 0
x283 0
x284 0
x291 0
x292 1
x293 0
x294 0
x301 0
x302 0
x303 0
x304 1
